c instance by G2
c solution = 0111110110010111111
c Known solution cost is 742 
p cnf 19 30
w 49 21 61 86 44 22 80 0 36 41 99 70 42 3 2 7 33 5 41
-15 -2 -1 0
5 10 13 0
-14 5 19 0
7 2 -3 0
-18 8 -2 0
-13 10 -19 0
-17 4 -3 0
-12 -15 9 0
-4 5 10 0
-10 7 -9 0
14 2 -9 0
-9 12 -8 0
18 7 -8 0
5 -6 10 0
19 -18 1 0
-11 13 -6 0
-16 10 3 0
17 -12 -14 0
8 9 2 0
-9 8 -17 0
17 -15 -2 0
-9 8 1 0
1 -5 15 0
-14 16 7 0
5 -7 19 0
-7 -18 -14 0
18 -7 -11 0
-13 -14 -8 0
-9 14 11 0
-9 6 10 0
